
List of user-set options:

                                    Name   Value                used
                           compl_inf_tol = 1                     yes
                         constr_viol_tol = 1                     yes
                            dual_inf_tol = 1000                  yes
                           linear_solver = ma97                  yes
                              ma86_small = 1e-30                  no
                                  ma86_u = 0.0001                 no
                              ma97_order = best                  yes
                              ma97_small = 1e-30                 yes
                            ma97_switch1 = at_start              yes
                            ma97_switch2 = od_hd_reuse           yes
                                  ma97_u = 1e-06                 yes
                               ma97_umax = 0.5                   yes
                                max_iter = 1000                  yes
                    max_refinement_steps = 20                    yes
                    min_refinement_steps = 5                     yes
                                 mu_init = 1e-06                 yes
           mu_superlinear_decrease_power = 1.25                  yes
                   nlp_scaling_min_value = 1e-08                 yes
                        option_file_name = Preset_Case_1_pf.opt  yes
                             output_file = ./tmp/Preset_Case_1_pf.output  yes
                      print_user_options = yes                   yes
        required_infeasibility_reduction = 1                      no
                                     tol = 1e-08                 yes
                   warm_start_bound_frac = 1e-20                 yes
                   warm_start_bound_push = 1e-20                 yes
                   warm_start_init_point = yes                   yes
              warm_start_mult_bound_push = 1e-20                 yes
                warm_start_mult_init_max = 1e+40                 yes
             warm_start_slack_bound_frac = 1e-20                 yes
             warm_start_slack_bound_push = 1e-20                 yes

******************************************************************************
This program contains Ipopt, a library for large-scale nonlinear optimization.
 Ipopt is released as open source code under the Eclipse Public License (EPL).
         For more information visit http://projects.coin-or.org/Ipopt
******************************************************************************

This is Ipopt version 3.12.10, running with linear solver ma97.

Number of nonzeros in equality constraint Jacobian...:   123442
Number of nonzeros in inequality constraint Jacobian.:      213
Number of nonzeros in Lagrangian Hessian.............:    49069

Total number of variables............................:    31591
                     variables with only lower bounds:    12912
                variables with lower and upper bounds:    15130
                     variables with only upper bounds:        0
Total number of equality constraints.................:    31483
Total number of inequality constraints...............:       25
        inequality constraints with only lower bounds:        4
   inequality constraints with lower and upper bounds:        0
        inequality constraints with only upper bounds:       21

iter    objective    inf_pr   inf_du lg(mu)  ||d||  lg(rg) alpha_du alpha_pr  ls
   0 -5.1390232e+00 4.02e-03 1.02e+00  -6.0 0.00e+00    -  0.00e+00 0.00e+00   0
   1 -5.1384663e+00 7.31e-01 1.09e+01  -6.0 2.22e+05    -  1.85e-04 4.46e-04h  3
   2 -5.1406396e+00 7.29e-01 3.89e+01  -6.0 8.55e+03    -  1.70e-01 2.61e-03h  1
   3 -5.1929804e+00 1.31e+00 5.97e+01  -6.0 8.46e+03    -  2.41e-02 6.32e-02h  1
   4 -5.1963346e+00 8.64e-01 2.27e+04  -6.0 2.37e+01  -4.0 4.01e-01 3.41e-01f  1
   5 -5.2145678e+00 8.88e-02 8.57e+04  -6.0 1.44e+01  -4.5 2.31e-01 8.97e-01h  1
   6 -5.2216626e+00 6.72e-02 8.90e+04  -6.0 3.75e+01  -5.0 1.27e-01 2.43e-01f  1
   7 -5.3456431e+00 8.92e-01 6.10e+04  -6.0 8.32e+01  -5.4 3.01e-01 3.42e-01h  1
   8 -5.5487615e+00 5.40e+00 7.17e+04  -6.0 1.21e+02  -5.9 3.89e-02 5.98e-01h  1
   9 -5.5495624e+00 3.12e+00 4.65e+04  -6.0 3.24e+01  -5.5 3.99e-01 5.24e-01h  1
iter    objective    inf_pr   inf_du lg(mu)  ||d||  lg(rg) alpha_du alpha_pr  ls
  10 -5.5597441e+00 5.67e-01 3.45e+04  -6.0 7.28e+01  -6.0 3.45e-01 1.00e+00h  1
  11 -5.5635138e+00 5.46e-01 3.28e+04  -6.0 8.83e+01  -4.6 6.72e-02 4.83e-02h  1
  12 -5.6130908e+00 6.25e+00 3.01e+04  -6.0 7.91e+03    -  6.97e-02 9.23e-02h  1
  13 -5.8178377e+00 1.01e+02 2.09e+04  -6.0 3.87e+03    -  1.12e-02 7.46e-01h  1
  14 -5.7076528e+00 1.02e-01 5.43e+04  -6.0 2.51e+01  -5.1 1.18e-01 1.00e+00h  1
  15 -5.7134520e+00 3.08e-02 1.23e+04  -6.0 1.54e+01  -5.6 3.89e-01 7.28e-01h  1
  16 -5.7186915e+00 3.52e-02 2.40e+04  -6.0 3.38e+01  -6.1 5.08e-01 1.00e+00f  1
  17 -5.7225525e+00 3.16e-02 1.04e+04  -6.0 4.46e+01  -5.6 1.67e-01 1.11e-01h  1
  18 -5.7249034e+00 2.51e-02 9.64e+03  -6.0 3.51e+01  -6.1 3.72e-01 4.66e-01h  1
  19 -5.7308528e+00 1.85e-01 1.22e+05  -6.0 7.75e+01  -6.6 8.41e-04 1.00e+00f  1
iter    objective    inf_pr   inf_du lg(mu)  ||d||  lg(rg) alpha_du alpha_pr  ls
  20 -5.7421752e+00 7.24e-01 2.53e+02  -6.0 1.54e+02  -7.1 7.76e-01 1.00e+00h  1
  21 -5.7526822e+00 1.13e+00 9.33e+01  -6.0 4.57e+02  -7.5 8.98e-01 3.91e-01h  1
  22 -5.7704080e+00 2.45e+00 1.26e+02  -6.0 1.45e+03  -8.0 4.03e-01 4.17e-01h  1
  23 -5.7714094e+00 2.41e+00 5.45e+01  -6.0 6.94e+03  -8.5 2.27e-02 1.60e-02h  1
  24 -5.7745930e+00 2.65e+00 7.68e+02  -6.0 3.87e+03  -8.1 3.89e-02 8.20e-02f  1
  25 -5.7827011e+00 2.29e+00 9.69e+02  -6.0 1.69e+03  -8.5 2.18e-01 1.56e-01h  1
  26 -5.8001671e+00 1.55e+00 4.33e+03  -6.0 8.34e+02  -8.1 8.75e-01 7.03e-01h  1
  27 -5.8118652e+00 2.90e+00 1.85e+04  -6.0 1.12e+03  -8.6 6.53e-01 3.97e-01h  1
  28 -5.8144701e+00 3.72e+00 6.51e+04  -6.0 2.71e+03  -9.1 5.84e-01 7.96e-02h  1
  29 -5.8242430e+00 3.46e+01 4.59e+04  -6.0 4.64e+03  -9.6 2.16e-01 2.56e-01h  1
iter    objective    inf_pr   inf_du lg(mu)  ||d||  lg(rg) alpha_du alpha_pr  ls
  30 -5.8277735e+00 3.53e+01 8.31e+04  -6.0 4.29e+03 -10.0 4.30e-01 1.08e-01h  1
  31 -5.8443996e+00 4.17e+01 2.27e+04  -6.0 1.86e+03  -9.6 2.46e-01 6.63e-01h  1
  32 -5.8492639e+00 3.35e+01 1.24e+05  -6.0 4.97e+03 -10.1 8.97e-03 2.25e-01h  1
  33 -5.8522721e+00 6.75e+01 2.12e+05  -6.0 8.00e+03 -10.6 4.16e-02 1.84e-01h  1
  34 -5.8573624e+00 6.62e+01 1.88e+05  -6.0 7.24e+03    -  1.67e-01 1.79e-01h  1
  35 -5.8625820e+00 6.29e+01 2.92e+05  -6.0 3.62e+03    -  1.00e-01 2.02e-01h  1
  36 -5.8627450e+00 6.40e+01 2.70e+05  -6.0 6.99e+04    -  1.42e-02 3.86e-03h  1
  37 -5.8799898e+00 4.28e+01 1.04e+06  -6.0 2.06e+03    -  1.49e-01 6.02e-01h  1
  38 -5.8817518e+00 4.09e+01 7.32e+05  -6.0 1.82e+03    -  2.15e-02 4.41e-02h  1
  39r-5.8817518e+00 4.09e+01 1.00e+03   1.5 0.00e+00    -  0.00e+00 2.62e-08R  2
iter    objective    inf_pr   inf_du lg(mu)  ||d||  lg(rg) alpha_du alpha_pr  ls
  40r-5.8897291e+00 4.09e+01 1.00e+03   1.5 1.70e+05    -  1.10e-07 4.89e-08f  1
  41 -5.8896979e+00 4.07e+01 2.32e+03  -6.0 7.85e+01    -  2.25e-06 5.23e-03h  1
  42 -5.8892941e+00 3.82e+01 2.18e+03  -6.0 7.83e+01    -  2.38e-02 6.09e-02h  1
  43 -5.8877052e+00 3.51e+01 2.00e+03  -6.0 7.29e+01    -  7.71e-02 8.27e-02h  1
  44 -5.8879220e+00 3.29e+01 1.87e+03  -6.0 6.64e+01    -  2.24e-01 6.15e-02h  1
  45 -5.8879861e+00 3.23e+01 1.84e+03  -6.0 6.18e+01    -  4.87e-01 1.77e-02h  1
  46 -5.8800960e+00 4.52e+00 2.56e+02  -6.0 5.71e+01    -  6.21e-01 8.62e-01h  1
  47 -5.8785709e+00 6.66e-03 7.64e+01  -6.0 1.20e+01    -  3.06e-01 1.00e+00h  1
  48 -5.8792524e+00 1.01e-04 4.74e+00  -6.0 1.77e+00    -  9.49e-01 1.00e+00h  1
  49 -5.8809318e+00 9.90e-03 1.85e+00  -6.0 1.75e+01    -  9.28e-01 1.00e+00h  1
iter    objective    inf_pr   inf_du lg(mu)  ||d||  lg(rg) alpha_du alpha_pr  ls
  50 -5.8898467e+00 4.56e-01 1.24e+01  -6.0 1.19e+02    -  3.23e-01 1.00e+00h  1
  51 -5.8909026e+00 1.56e-01 2.21e+01  -6.0 7.05e+01    -  3.90e-01 1.00e+00h  1
  52 -5.8908167e+00 7.86e-02 1.17e+00  -6.0 4.19e+01    -  9.50e-01 6.43e-01h  1
  53 -5.8908352e+00 7.76e-01 4.36e+00  -6.0 3.31e+02    -  8.71e-01 3.94e-01h  1
  54 -5.8908899e+00 5.45e-01 3.15e+00  -6.0 9.33e+02  -8.3 7.50e-03 1.23e-01h  1
  55 -5.8912322e+00 1.77e+01 9.69e+00  -6.0 1.60e+03    -  4.34e-01 5.94e-01h  1
  56 -5.8912551e+00 1.46e+01 6.68e+00  -6.0 5.77e+02  -8.8 6.96e-02 1.75e-01h  1
  57 -5.8914983e+00 4.82e+00 4.16e+00  -6.0 5.81e+02  -9.3 7.68e-01 8.69e-01h  1
  58 -5.8915790e+00 4.79e+00 6.97e+00  -6.0 6.55e+04    -  2.19e-03 5.26e-03h  1
  59 -5.8915955e+00 4.73e+00 6.22e+00  -6.0 1.39e+03    -  1.74e-01 2.41e-01h  1
iter    objective    inf_pr   inf_du lg(mu)  ||d||  lg(rg) alpha_du alpha_pr  ls
  60 -5.8916416e+00 4.61e+00 6.27e+00  -6.0 5.98e+03  -9.8 1.77e-02 2.48e-02h  1
  61 -5.8917077e+00 4.20e+00 2.24e+01  -6.0 3.01e+03    -  4.77e-01 9.45e-02h  1
  62 -5.8919895e+00 2.08e+01 8.97e+00  -6.0 1.63e+03    -  9.34e-01 6.45e-01h  1
  63 -5.8920031e+00 2.03e+01 9.15e+00  -6.0 3.21e+03    -  1.22e-01 8.99e-02h  1
  64 -5.8920601e+00 5.73e+01 3.34e+01  -6.0 3.57e+03    -  3.05e-01 4.71e-01h  1
  65 -5.8918842e+00 2.31e+01 2.29e+05  -6.0 1.70e+02    -  1.19e-02 5.99e-01h  1
  66 -5.8918869e+00 1.22e-01 3.08e+03  -6.0 6.58e+01  -8.4 6.03e-01 1.00e+00h  1
  67 -5.8918149e+00 2.82e-02 2.11e+01  -6.0 1.94e+02    -  1.00e+00 1.00e+00H  1
  68 -5.8918148e+00 1.07e-04 1.35e-03  -6.0 2.46e+00    -  1.00e+00 1.00e+00h  1
  69 -5.8918148e+00 1.23e-07 6.51e-08  -6.0 8.96e-02    -  1.00e+00 1.00e+00h  1
iter    objective    inf_pr   inf_du lg(mu)  ||d||  lg(rg) alpha_du alpha_pr  ls
  70 -5.8920011e+00 4.95e+00 3.38e+01  -7.5 7.52e+02    -  6.41e-01 7.57e-01h  1
  71 -5.8919845e+00 1.44e+00 1.06e+01  -7.5 2.30e+02    -  9.80e-01 8.29e-01h  1
  72 -5.8919740e+00 2.62e-02 3.18e-02  -7.5 3.92e+01    -  1.00e+00 1.00e+00h  1
  73 -5.8919738e+00 1.70e-05 5.19e-06  -7.5 1.06e+00    -  1.00e+00 1.00e+00h  1
  74 -5.8919738e+00 2.85e-10 1.20e-11  -7.5 2.09e-04    -  1.00e+00 1.00e+00h  1
  75 -5.8919754e+00 7.67e-03 9.07e-01  -9.0 2.66e+01    -  9.24e-01 8.26e-01h  1
  76 -5.8919757e+00 3.50e-04 7.19e-02  -9.0 4.69e+00    -  9.84e-01 1.00e+00h  1
  77 -5.8919757e+00 3.75e-10 4.30e-09  -9.0 5.27e-03    -  1.00e+00 1.00e+00h  1

Number of Iterations....: 77

                                   (scaled)                 (unscaled)
Objective...............:  -4.6031059817971132e+00   -5.8919756567003052e+00
Dual infeasibility......:   4.3044437736134472e-09    5.5096880302252127e-09
Constraint violation....:   3.0794381357334387e-10    3.7471181713044643e-10
Complementarity.........:   1.4672530065352560e-09    1.8780838483651277e-09
Overall NLP error.......:   4.3044437736134472e-09    5.5096880302252127e-09


Number of objective function evaluations             = 84
Number of objective gradient evaluations             = 78
Number of equality constraint evaluations            = 84
Number of inequality constraint evaluations          = 84
Number of equality constraint Jacobian evaluations   = 79
Number of inequality constraint Jacobian evaluations = 79
Number of Lagrangian Hessian evaluations             = 77
Total CPU secs in IPOPT (w/o function evaluations)   =    122.967
Total CPU secs in NLP function evaluations           =      1.721

EXIT: Optimal Solution Found.
